c Sudoku solution
p cnf 729 0
112 0
134 0
148 0
247 0
265 0
321 0
333 0
399 0
437 0
522 0
536 0
583 0
613 0
652 0
666 0
684 0
739 0
238 0
768 0
774 0
294 0
785 0
818 0
827 0
317 0
125 0
375 0
388 0
881 0
896 0
956 0
346 0
362 0
354 0
972 0
998 0
742 0
832 0
282 0
492 0
489 0
476 0
186 0
879 0
793 0
987 0
726 0
923 0
914 0
935 0
711 0
757 0
631 0
415 0
519 0
424 0
628 0
458 0
578 0
591 0
695 0
677 0
649 0
216 0
229 0
941 0
969 0
443 0
461 0
555 0
544 0
567 0
845 0
864 0
853 0
251 0
159 0
163 0
273 0
171 0
197 0
